NAME : Random_TSP_Instance
TYPE : TSP
DIMENSION : 10
EDGE_WEIGHT_TYPE : EUC_2D
NODE_COORD_SECTION
1 6.433595 6.734523
2 0.084717 1.742815
3 7.445245 5.574724
4 2.793335 7.438441
5 1.629897 0.255781
6 9.979661 5.534169
7 8.454660 2.247017
8 5.033189 0.366821
9 2.846191 6.151712
10 6.813506 5.489374
EOF
